============================[ Problem Statistics ]=============================|                                                                             ||  Number of variables:          4242                                         ||  Number of clauses:            9653                                         ||  Parse time:                   0.06 s                                       ||                                                                             |============================[ Search Statistics ]==============================| Conflicts |          ORIGINAL         |          LEARNT          | Progress ||           |    Vars  Clauses Literals |    Limit  Clauses Lit/Cl |          |==============================================================================================================================================================restarts              : 1conflicts             : 38             (481 /sec)decisions             : 123            (0.00 % random) (1557 /sec)propagations          : 8093           (102443 /sec)conflict literals     : 1426           (95.74 % deleted)CPU time              : 0.079 sSATISFIABLE